NAME: ./prFile/tspFile/tsp_file86.tsp
COMMENT: TSP file generated by Python
TYPE: TSP
DIMENSION: 40
EDGE_WEIGHT_TYPE: EUC_2D
NODE_COORD_SECTION
1 51 35
2 31 66
3 77 1
4 3 24
5 67 51
6 38 87
7 78 38
8 70 90
9 73 67
10 96 2
11 78 63
12 5 20
13 73 51
14 87 48
15 32 4
16 6 56
17 59 95
18 20 68
19 93 37
20 2 36
21 54 59
22 10 30
23 64 23
24 99 83
25 74 99
26 100 15
27 73 22
28 47 85
29 21 45
30 88 74
31 88 90
32 70 49
33 9 31
34 4 15
35 71 28
36 78 68
37 80 92
38 6 91
39 55 95
40 65 27
EOF
